SDVRP instances/custom_instances/p10_6_splitx10_0.vrp
NAME:p10_6_splitx10_
BEST_KNOWN: 0
COMMENT: 0
DIMENSION: 910
CAPACITY: 2000
EDGE_WEIGHT_FORMAT: FUNCTION
EDGE_WEIGHT_TYPE: EXACT_2D
NODE_COORD_SECTION
1 0.00000 0.00000
2 12 38
3 12 38
4 12 38
5 12 38
6 12 38
7 12 38
8 -7 -14
9 -7 -14
10 -7 -14
11 -7 -14
12 -7 -14
13 -7 -14
14 -29 15
15 -29 15
16 -29 15
17 -29 15
18 -29 15
19 -29 15
20 -29 15
21 -10 39
22 -10 39
23 25 6
24 25 6
25 25 6
26 25 6
27 25 6
28 25 6
29 20 33
30 20 33
31 20 33
32 20 33
33 20 33
34 36 28
35 36 28
36 36 28
37 36 28
38 36 28
39 36 28
40 -33 0
41 -33 0
42 -33 0
43 7 -22
44 7 -22
45 7 -22
46 7 -22
47 -27 36
48 -27 36
49 -27 36
50 -27 36
51 -27 36
52 10 -1
53 10 -1
54 10 -1
55 10 -1
56 5 -33
57 5 -33
58 5 -33
59 5 -33
60 5 -33
61 5 -33
62 -11 6
63 -11 6
64 -11 6
65 -11 6
66 -11 6
67 -11 6
68 -11 6
69 -11 6
70 -4 -9
71 -4 -9
72 -4 -9
73 7 8
74 7 8
75 7 8
76 7 8
77 35 19
78 35 19
79 35 19
80 35 19
81 35 19
82 35 19
83 -13 19
84 -13 19
85 -13 19
86 -13 19
87 -13 19
88 -30 -32
89 -30 -32
90 -30 -32
91 -30 -32
92 -30 -32
93 -17 -50
94 -17 -50
95 -17 -50
96 -17 -50
97 -17 -50
98 -17 -50
99 -20 -38
100 -20 -38
101 -20 -38
102 -20 -38
103 -20 -38
104 -20 -38
105 -11 -19
106 -11 -19
107 -11 -19
108 -11 -19
109 -11 -19
110 -39 -49
111 -39 -49
112 -39 -49
113 6 31
114 6 31
115 6 31
116 6 31
117 6 31
118 43 12
119 43 12
120 43 12
121 43 12
122 43 12
123 43 12
124 48 9
125 48 9
126 48 9
127 48 9
128 48 9
129 8 36
130 8 36
131 8 36
132 8 36
133 23 -38
134 23 -38
135 23 -38
136 -3 -9
137 -3 -9
138 -17 28
139 -17 28
140 -17 28
141 -18 -41
142 -18 -41
143 -18 -41
144 -18 -41
145 -18 -41
146 38 12
147 38 12
148 38 12
149 38 12
150 -14 -2
151 -14 -2
152 -14 -2
153 -14 -2
154 -14 -2
155 36 -3
156 36 -3
157 36 -3
158 36 -3
159 36 -3
160 36 -3
161 36 -3
162 24 40
163 24 40
164 24 40
165 -46 20
166 -46 20
167 -46 20
168 49 23
169 49 23
170 49 23
171 49 23
172 49 23
173 16 -22
174 16 -22
175 16 -22
176 41 -16
177 41 -16
178 41 -16
179 26 -30
180 26 -30
181 19 -47
182 19 -47
183 19 -47
184 19 -47
185 19 -47
186 19 -47
187 -42 -43
188 -42 -43
189 -42 -43
190 -42 -43
191 -42 -43
192 -12 30
193 -12 30
194 -12 30
195 -12 30
196 -12 30
197 -12 30
198 -12 30
199 -12 30
200 49 11
201 49 11
202 49 11
203 49 11
204 -3 43
205 -3 43
206 -3 43
207 -3 43
208 -3 43
209 -3 43
210 -3 43
211 -33 33
212 -33 33
213 -33 33
214 -33 33
215 32 -29
216 32 -29
217 32 -29
218 32 -29
219 32 -29
220 9 33
221 9 33
222 9 33
223 -47 15
224 -47 15
225 -47 15
226 -47 15
227 -47 15
228 -47 15
229 28 -45
230 28 -45
231 28 -45
232 18 43
233 18 43
234 18 43
235 18 43
236 18 43
237 46 -43
238 46 -43
239 46 -43
240 46 -43
241 13 20
242 13 20
243 13 20
244 13 20
245 13 20
246 -17 -19
247 -17 -19
248 -17 -19
249 -17 -19
250 -17 -19
251 -17 -19
252 29 50
253 29 50
254 29 50
255 29 50
256 29 50
257 6 47
258 6 47
259 6 47
260 6 47
261 42 -44
262 42 -44
263 42 -44
264 42 -44
265 42 -44
266 37 -45
267 37 -45
268 37 -45
269 44 25
270 44 25
271 44 25
272 -14 50
273 -14 50
274 -14 50
275 -14 50
276 45 30
277 45 30
278 45 30
279 45 30
280 -42 45
281 -42 45
282 -42 45
283 -42 45
284 26 -30
285 26 -30
286 26 -30
287 -36 36
288 -36 36
289 -36 36
290 -36 36
291 37 -27
292 37 -27
293 37 -27
294 37 -27
295 37 -27
296 32 16
297 32 16
298 32 16
299 32 16
300 32 16
301 -32 -8
302 -32 -8
303 -32 -8
304 -32 -8
305 -32 -8
306 -32 -8
307 -32 -8
308 -42 -26
309 -42 -26
310 -42 -26
311 -42 -26
312 -42 -26
313 26 -31
314 26 -31
315 26 -31
316 26 -31
317 26 -31
318 26 -31
319 3 -3
320 3 -3
321 3 -3
322 3 -3
323 3 -3
324 -20 -47
325 -20 -47
326 -20 -47
327 -20 -47
328 -20 -47
329 -44 -43
330 -44 -43
331 -44 -43
332 -44 -43
333 -44 -43
334 -44 -43
335 -44 -43
336 45 45
337 45 45
338 45 45
339 45 45
340 45 45
341 45 45
342 45 45
343 1 36
344 1 36
345 1 36
346 1 36
347 1 36
348 -14 -3
349 -14 -3
350 -27 -11
351 -27 -11
352 -27 -11
353 13 19
354 13 19
355 13 19
356 13 19
357 -16 -32
358 -16 -32
359 -16 -32
360 -16 -32
361 -16 -32
362 -16 -32
363 -4 -16
364 -4 -16
365 -4 -16
366 -4 -16
367 -4 -16
368 -4 -16
369 -4 -16
370 -13 -42
371 -13 -42
372 -13 -42
373 -26 27
374 -26 27
375 -26 27
376 38 -21
377 38 -21
378 38 -21
379 38 -21
380 10 26
381 10 26
382 10 26
383 10 26
384 10 26
385 10 26
386 -35 36
387 -35 36
388 -35 36
389 -35 36
390 -35 36
391 -35 36
392 40 7
393 40 7
394 40 7
395 -28 -5
396 -28 -5
397 -28 -5
398 -28 -5
399 -28 -5
400 -28 -5
401 -40 11
402 -40 11
403 -40 11
404 -40 11
405 -40 11
406 -40 11
407 -40 11
408 -48 -32
409 -48 -32
410 -48 -32
411 -48 -32
412 -48 -32
413 -48 -32
414 2 43
415 2 43
416 2 43
417 2 43
418 -23 14
419 -23 14
420 -31 -5
421 -31 -5
422 -31 -5
423 -31 -5
424 -31 -5
425 -2 -9
426 -2 -9
427 -2 -9
428 -2 -9
429 -2 -9
430 -2 -9
431 38 2
432 38 2
433 38 2
434 38 2
435 34 -45
436 34 -45
437 34 -45
438 34 -45
439 34 -45
440 -14 -7
441 -14 -7
442 -14 -7
443 -25 -40
444 -25 -40
445 -25 -40
446 -25 -40
447 -25 -40
448 18 -26
449 18 -26
450 18 -26
451 18 -26
452 18 -26
453 -6 12
454 -6 12
455 -6 12
456 -6 12
457 -16 -37
458 -16 -37
459 34 39
460 34 39
461 34 39
462 34 39
463 50 31
464 50 31
465 50 31
466 50 31
467 50 31
468 50 31
469 -37 39
470 -37 39
471 -37 39
472 -37 39
473 14 -1
474 14 -1
475 14 -1
476 14 -1
477 14 -1
478 14 -1
479 20 -16
480 20 -16
481 -48 -47
482 24 16
483 24 16
484 -1 -43
485 -1 -43
486 -48 -25
487 -48 -25
488 -48 -25
489 -48 -25
490 -48 -25
491 -48 -25
492 -48 -25
493 -46 1
494 -46 1
495 -46 1
496 -46 1
497 14 -28
498 14 -28
499 14 -28
500 14 -28
501 14 -28
502 14 -28
503 14 -28
504 14 -28
505 -15 -12
506 -15 -12
507 -15 -12
508 -34 14
509 -34 14
510 -34 14
511 -34 14
512 -8 -32
513 -8 -32
514 -8 -32
515 -8 -32
516 -8 -32
517 -8 -32
518 28 -35
519 28 -35
520 28 -35
521 28 -35
522 -35 32
523 -35 32
524 -35 32
525 -50 -45
526 -50 -45
527 -50 -45
528 -50 -45
529 -50 -45
530 -8 -45
531 -8 -45
532 -8 -45
533 -8 -45
534 -14 13
535 -14 13
536 -11 -12
537 -11 -12
538 -11 -12
539 24 -47
540 24 -47
541 24 -47
542 24 -47
543 24 -47
544 24 -47
545 24 -47
546 -8 -9
547 -8 -9
548 -8 -9
549 -8 -9
550 -5 28
551 -5 28
552 -5 28
553 -5 28
554 45 4
555 45 4
556 45 4
557 -15 -40
558 -15 -40
559 -15 -40
560 -15 -40
561 -15 -40
562 21 34
563 21 34
564 5 25
565 5 25
566 5 25
567 5 25
568 5 25
569 5 25
570 48 -29
571 48 -29
572 48 -29
573 48 -29
574 48 -29
575 -21 -3
576 -21 -3
577 -21 -3
578 -21 -3
579 -21 -3
580 -19 -10
581 -19 -10
582 -19 -10
583 -19 -10
584 -19 -10
585 -2 -48
586 22 -16
587 22 -16
588 22 -16
589 22 -16
590 22 -16
591 -14 50
592 -14 50
593 -14 50
594 -14 50
595 -14 50
596 -46 -4
597 -46 -4
598 -46 -4
599 -46 -4
600 -46 -4
601 -46 -4
602 14 -47
603 14 -47
604 14 -47
605 14 -47
606 -49 -15
607 -49 -15
608 -49 -15
609 4 45
610 4 45
611 4 45
612 4 45
613 0 10
614 0 10
615 0 10
616 -19 28
617 -19 28
618 -19 28
619 -19 28
620 -19 28
621 -19 28
622 -19 28
623 -19 28
624 -9 43
625 -9 43
626 -9 43
627 -9 43
628 -9 43
629 -9 43
630 -9 43
631 -24 50
632 -24 50
633 -24 50
634 -24 50
635 -24 50
636 47 46
637 47 46
638 47 46
639 47 46
640 47 46
641 28 -17
642 28 -17
643 28 -17
644 28 -17
645 28 -17
646 28 -17
647 28 -17
648 -8 -38
649 -8 -38
650 -8 -38
651 44 -38
652 44 -38
653 44 -38
654 44 -38
655 44 -38
656 38 -39
657 38 -39
658 38 -39
659 7 -49
660 7 -49
661 7 -49
662 7 -49
663 36 -23
664 36 -23
665 36 -23
666 36 -23
667 17 -49
668 17 -49
669 17 -49
670 17 -49
671 37 -45
672 37 -45
673 37 -45
674 37 -45
675 37 -45
676 -23 -40
677 -23 -40
678 -23 -40
679 -23 -40
680 -23 -40
681 -9 12
682 -9 12
683 -9 12
684 -9 12
685 -9 12
686 26 8
687 26 8
688 26 8
689 26 8
690 26 8
691 26 8
692 -41 -34
693 -41 -34
694 -41 -34
695 -41 -34
696 -41 -34
697 -3 47
698 -3 47
699 -3 47
700 -3 47
701 13 9
702 13 9
703 13 9
704 13 9
705 13 9
706 13 9
707 -16 -39
708 -16 -39
709 -16 -39
710 -16 -39
711 3 -6
712 3 -6
713 3 -6
714 3 -6
715 2 -38
716 2 -38
717 2 -38
718 34 -4
719 34 -4
720 34 -4
721 48 -14
722 48 -14
723 48 -14
724 48 -14
725 48 -14
726 48 -14
727 37 47
728 37 47
729 37 47
730 -24 -39
731 -24 -39
732 -24 -39
733 -24 -39
734 -44 -24
735 -44 -24
736 -44 -24
737 -44 -24
738 -44 -24
739 -44 -24
740 16 25
741 16 25
742 16 25
743 30 32
744 30 32
745 30 32
746 30 32
747 30 32
748 30 32
749 30 32
750 45 -7
751 45 -7
752 45 -7
753 41 -43
754 41 -43
755 41 -43
756 41 -43
757 41 -43
758 13 -44
759 13 -44
760 13 -44
761 13 -44
762 13 -44
763 -40 34
764 -40 34
765 -40 34
766 -40 34
767 -40 34
768 -40 34
769 46 10
770 46 10
771 46 10
772 46 10
773 -28 -43
774 -28 -43
775 -28 -43
776 -28 17
777 -15 21
778 -15 21
779 -15 21
780 -15 21
781 -15 21
782 50 -33
783 50 -33
784 50 -33
785 50 -33
786 50 -33
787 50 -33
788 9 -50
789 9 -50
790 9 -50
791 9 -50
792 9 -50
793 9 -50
794 9 -50
795 -45 20
796 -45 20
797 -45 20
798 -45 20
799 -45 20
800 -45 20
801 -45 20
802 -21 44
803 -21 44
804 -21 44
805 -21 44
806 -21 44
807 -21 44
808 -21 44
809 -50 29
810 -50 29
811 -50 29
812 -35 -18
813 -35 -18
814 -35 -18
815 -35 -18
816 -25 -7
817 -25 -7
818 -25 -7
819 -25 -7
820 16 -30
821 16 -30
822 16 -30
823 16 -30
824 16 -30
825 -28 -2
826 -28 -2
827 -28 -2
828 -19 22
829 -19 22
830 -19 22
831 -19 22
832 -19 22
833 -19 22
834 -37 -20
835 -37 -20
836 -37 -20
837 -37 -20
838 -37 -20
839 12 -32
840 12 -32
841 12 -32
842 12 -32
843 12 -32
844 12 -32
845 12 -32
846 12 -32
847 3 -47
848 3 -47
849 3 -47
850 28 38
851 28 38
852 28 38
853 28 38
854 37 32
855 37 32
856 37 32
857 37 32
858 -29 13
859 -29 13
860 -29 13
861 -29 13
862 -29 13
863 -29 13
864 -29 13
865 -29 20
866 -29 20
867 -29 20
868 -49 -44
869 -49 -44
870 -49 -44
871 44 22
872 44 22
873 44 22
874 44 22
875 44 22
876 -17 25
877 -17 25
878 -17 25
879 -17 25
880 -17 25
881 -17 25
882 -17 25
883 33 -20
884 33 -20
885 33 -20
886 33 -20
887 33 -20
888 -5 34
889 -42 -16
890 -42 -16
891 -42 -16
892 -42 -16
893 -42 -16
894 -42 -16
895 -15 -1
896 -15 -1
897 -15 -1
898 -15 -1
899 0 47
900 0 47
901 0 47
902 0 47
903 -48 46
904 -48 46
905 -48 46
906 -48 46
907 -48 46
908 -43 -41
909 -43 -41
910 -43 -41
DEMAND_SECTION
1 0
2 200
3 20
4 20
5 20
6 20
7 10
8 400
9 400
10 20
11 20
12 20
13 20
14 400
15 400
16 100
17 20
18 20
19 20
20 10
21 400
22 10
23 400
24 400
25 20
26 20
27 20
28 20
29 200
30 100
31 20
32 20
33 10
34 400
35 400
36 100
37 20
38 20
39 20
40 200
41 100
42 20
43 200
44 20
45 20
46 10
47 400
48 400
49 100
50 20
51 10
52 200
53 100
54 20
55 20
56 400
57 100
58 20
59 20
60 20
61 10
62 400
63 400
64 100
65 20
66 20
67 20
68 20
69 10
70 400
71 20
72 20
73 400
74 400
75 100
76 20
77 400
78 400
79 100
80 20
81 20
82 20
83 400
84 20
85 20
86 20
87 20
88 200
89 20
90 20
91 20
92 10
93 400
94 20
95 20
96 20
97 20
98 10
99 200
100 100
101 20
102 20
103 20
104 10
105 400
106 400
107 20
108 20
109 10
110 400
111 200
112 10
113 400
114 200
115 100
116 20
117 10
118 400
119 200
120 100
121 20
122 20
123 20
124 400
125 400
126 100
127 20
128 10
129 400
130 100
131 20
132 10
133 400
134 20
135 20
136 400
137 20
138 400
139 20
140 20
141 200
142 20
143 20
144 20
145 10
146 400
147 100
148 20
149 10
150 400
151 400
152 20
153 20
154 20
155 400
156 100
157 20
158 20
159 20
160 20
161 10
162 400
163 100
164 10
165 400
166 400
167 200
168 200
169 20
170 20
171 20
172 20
173 400
174 100
175 20
176 200
177 100
178 20
179 400
180 100
181 400
182 400
183 100
184 20
185 20
186 20
187 400
188 400
189 20
190 20
191 10
192 400
193 400
194 100
195 20
196 20
197 20
198 20
199 10
200 200
201 100
202 20
203 20
204 400
205 400
206 100
207 20
208 20
209 20
210 10
211 400
212 20
213 20
214 20
215 400
216 20
217 20
218 20
219 20
220 400
221 200
222 100
223 400
224 100
225 20
226 20
227 20
228 10
229 400
230 100
231 10
232 400
233 100
234 20
235 20
236 10
237 400
238 100
239 20
240 20
241 400
242 400
243 100
244 20
245 10
246 200
247 20
248 20
249 20
250 20
251 10
252 200
253 20
254 20
255 20
256 10
257 400
258 400
259 100
260 20
261 400
262 100
263 20
264 20
265 10
266 400
267 200
268 10
269 200
270 100
271 20
272 400
273 400
274 20
275 10
276 400
277 400
278 100
279 10
280 400
281 400
282 20
283 10
284 400
285 200
286 100
287 400
288 400
289 20
290 10
291 400
292 400
293 20
294 20
295 20
296 200
297 20
298 20
299 20
300 20
301 400
302 400
303 100
304 20
305 20
306 20
307 20
308 400
309 100
310 20
311 20
312 10
313 400
314 200
315 20
316 20
317 20
318 10
319 400
320 200
321 100
322 20
323 20
324 200
325 100
326 20
327 20
328 20
329 400
330 200
331 20
332 20
333 20
334 20
335 10
336 200
337 100
338 20
339 20
340 20
341 20
342 10
343 400
344 100
345 20
346 20
347 10
348 200
349 100
350 400
351 20
352 10
353 200
354 100
355 20
356 20
357 400
358 200
359 20
360 20
361 20
362 20
363 200
364 100
365 20
366 20
367 20
368 20
369 10
370 400
371 400
372 20
373 400
374 400
375 10
376 400
377 100
378 20
379 20
380 400
381 100
382 20
383 20
384 20
385 20
386 400
387 200
388 20
389 20
390 20
391 10
392 400
393 20
394 20
395 400
396 200
397 20
398 20
399 20
400 20
401 400
402 400
403 20
404 20
405 20
406 20
407 10
408 400
409 400
410 20
411 20
412 20
413 10
414 200
415 20
416 20
417 20
418 400
419 20
420 200
421 20
422 20
423 20
424 10
425 200
426 100
427 20
428 20
429 20
430 20
431 400
432 200
433 20
434 10
435 400
436 20
437 20
438 20
439 10
440 400
441 20
442 20
443 400
444 100
445 20
446 20
447 20
448 400
449 100
450 20
451 20
452 10
453 400
454 400
455 100
456 10
457 200
458 100
459 200
460 100
461 20
462 10
463 400
464 200
465 100
466 20
467 20
468 10
469 400
470 100
471 20
472 10
473 400
474 100
475 20
476 20
477 20
478 20
479 400
480 400
481 400
482 200
483 100
484 400
485 10
486 400
487 400
488 100
489 20
490 20
491 20
492 20
493 400
494 20
495 20
496 20
497 400
498 400
499 100
500 20
501 20
502 20
503 20
504 10
505 400
506 400
507 100
508 400
509 20
510 20
511 20
512 400
513 100
514 20
515 20
516 20
517 20
518 400
519 20
520 20
521 20
522 400
523 200
524 100
525 400
526 400
527 20
528 20
529 10
530 400
531 400
532 20
533 20
534 400
535 100
536 400
537 20
538 20
539 400
540 200
541 20
542 20
543 20
544 20
545 10
546 400
547 400
548 20
549 10
550 400
551 100
552 20
553 10
554 400
555 20
556 10
557 200
558 100
559 20
560 20
561 10
562 200
563 100
564 400
565 20
566 20
567 20
568 20
569 10
570 400
571 200
572 20
573 20
574 20
575 400
576 200
577 20
578 20
579 10
580 200
581 100
582 20
583 20
584 20
585 400
586 400
587 200
588 20
589 20
590 10
591 400
592 200
593 100
594 20
595 20
596 400
597 200
598 100
599 20
600 20
601 10
602 400
603 100
604 20
605 20
606 200
607 100
608 20
609 200
610 20
611 20
612 10
613 200
614 100
615 10
616 400
617 200
618 100
619 20
620 20
621 20
622 20
623 10
624 400
625 400
626 100
627 20
628 20
629 20
630 20
631 400
632 400
633 100
634 20
635 20
636 200
637 100
638 20
639 20
640 10
641 400
642 400
643 100
644 20
645 20
646 20
647 10
648 400
649 200
650 20
651 400
652 100
653 20
654 20
655 10
656 400
657 400
658 200
659 400
660 100
661 20
662 20
663 400
664 200
665 20
666 10
667 400
668 400
669 20
670 10
671 400
672 400
673 100
674 20
675 20
676 400
677 200
678 100
679 20
680 10
681 400
682 200
683 100
684 20
685 20
686 400
687 400
688 20
689 20
690 20
691 20
692 400
693 400
694 100
695 20
696 20
697 400
698 200
699 20
700 10
701 400
702 200
703 20
704 20
705 20
706 20
707 400
708 200
709 100
710 10
711 200
712 20
713 20
714 20
715 200
716 100
717 10
718 400
719 20
720 10
721 200
722 100
723 20
724 20
725 20
726 10
727 400
728 400
729 10
730 400
731 400
732 20
733 20
734 200
735 100
736 20
737 20
738 20
739 20
740 400
741 20
742 20
743 400
744 400
745 20
746 20
747 20
748 20
749 10
750 400
751 200
752 10
753 400
754 200
755 20
756 20
757 10
758 200
759 20
760 20
761 20
762 20
763 400
764 100
765 20
766 20
767 20
768 10
769 400
770 20
771 20
772 10
773 400
774 400
775 100
776 400
777 400
778 20
779 20
780 20
781 10
782 400
783 200
784 20
785 20
786 20
787 10
788 200
789 100
790 20
791 20
792 20
793 20
794 10
795 400
796 200
797 100
798 20
799 20
800 20
801 20
802 400
803 200
804 100
805 20
806 20
807 20
808 20
809 400
810 100
811 20
812 400
813 200
814 100
815 10
816 400
817 200
818 20
819 20
820 400
821 20
822 20
823 20
824 10
825 400
826 200
827 10
828 400
829 200
830 20
831 20
832 20
833 10
834 400
835 100
836 20
837 20
838 10
839 400
840 400
841 100
842 20
843 20
844 20
845 20
846 10
847 400
848 100
849 10
850 200
851 20
852 20
853 10
854 400
855 400
856 100
857 20
858 400
859 400
860 100
861 20
862 20
863 20
864 10
865 400
866 400
867 10
868 400
869 400
870 200
871 400
872 20
873 20
874 20
875 20
876 400
877 200
878 20
879 20
880 20
881 20
882 10
883 200
884 100
885 20
886 20
887 10
888 400
889 400
890 400
891 20
892 20
893 20
894 20
895 400
896 20
897 20
898 10
899 200
900 100
901 20
902 20
903 400
904 200
905 100
906 20
907 20
908 400
909 200
910 20
DEPOT_SECTION
1
-1
EOF