SDVRP instances/custom_instances/p10_6_splitx10_0.sol
909 -11 7 10 12 9 8 104 105 362 363 366 -20 21 590 272 273 592 271 594 591 593 274 -26 25 27 22 23 24 690 687 689 685 686 688 702 701 -33 35 855 854 856 853 458 461 460 459 852 849 850 851 -38 36 34 37 268 269 270 870 872 871 118 117 119 120 122 121 -41 40 39 400 401 405 402 858 857 -43 44 45 42 498 501 502 500 503 499 497 496 819 823 822 820 821 712 710 713 711 -49 48 50 47 46 211 213 212 210 521 522 -52 53 54 51 472 473 476 475 474 477 320 318 321 319 322 -60 56 58 59 55 57 714 716 715 844 838 843 841 845 842 840 839 -66 64 68 63 65 67 62 61 534 533 86 83 82 85 84 -70 103 677 675 676 679 678 444 442 446 730 729 -74 72 73 352 241 240 242 -75 337 338 336 339 341 335 340 637 638 635 639 636 728 727 726 253 254 252 255 251 163 562 741 243 244 -88 91 87 190 188 186 189 187 333 332 329 331 330 334 328 908 -90 89 909 907 869 868 867 695 691 693 694 -107 108 106 358 361 359 707 706 708 709 559 557 558 556 560 371 370 369 -128 129 131 130 259 258 256 257 610 611 609 608 413 415 414 416 -133 132 230 228 541 539 544 542 540 538 543 181 184 604 603 761 -134 229 674 673 262 263 261 260 264 236 238 237 239 752 755 753 756 754 -145 147 769 770 771 768 555 553 554 432 431 430 433 -148 146 201 202 200 199 124 127 125 126 123 393 391 392 -162 161 231 233 232 234 235 6 5 1 2 4 3 384 379 382 380 383 381 -173 172 174 449 447 451 586 588 589 585 587 479 -179 283 178 285 284 313 312 317 316 315 314 448 450 -182 180 185 183 666 668 667 669 601 759 757 -203 209 204 206 207 208 205 696 697 698 699 901 898 900 899 -218 215 216 217 214 656 655 657 518 517 520 519 -219 220 221 113 115 114 116 112 565 563 564 566 567 568 -245 250 247 246 248 249 692 412 410 411 409 407 408 735 734 737 736 738 733 -266 671 265 672 670 267 437 435 436 438 434 -277 275 276 278 467 463 462 464 465 466 171 168 167 170 169 874 873 -287 286 288 289 468 388 386 389 387 385 390 -295 297 296 299 298 78 81 80 79 77 76 482 481 704 703 700 705 -345 344 346 343 342 627 625 626 624 629 628 623 887 -347 348 152 151 150 149 153 896 894 895 897 -355 354 353 739 740 32 30 31 29 28 561 742 747 748 744 746 743 745 -356 357 360 102 101 98 99 100 772 773 774 445 443 -377 376 569 572 570 571 573 784 783 782 786 781 785 650 651 654 653 652 -404 403 406 227 224 223 225 222 226 164 166 798 795 796 797 794 799 800 -417 418 775 17 14 18 15 16 19 13 863 862 860 861 859 -421 422 419 420 423 301 303 302 300 306 305 304 816 817 815 818 -425 429 424 135 136 69 71 545 546 548 547 -426 427 428 368 364 365 367 649 648 647 529 531 530 532 584 -440 439 441 505 506 504 535 536 537 -456 457 144 141 143 140 142 323 326 324 327 325 93 95 96 92 94 97 516 511 512 515 514 513 -478 291 293 294 290 292 665 662 663 886 885 883 -483 484 846 847 848 658 660 661 659 793 789 792 788 790 791 787 602 760 758 -492 495 494 493 595 598 600 596 597 599 350 351 349 580 579 581 583 582 -510 507 509 508 165 808 810 809 763 762 764 766 767 765 -523 906 904 905 902 903 279 282 281 280 471 470 469 619 618 622 617 -527 526 525 528 524 480 109 111 110 731 732 -550 551 552 549 192 197 194 198 195 191 193 196 777 776 779 778 780 -574 578 576 575 577 398 396 395 399 397 394 825 824 826 -605 606 607 489 490 491 488 485 486 487 310 308 307 309 311 834 837 835 836 -612 613 614 454 453 455 452 680 681 684 682 683 -616 621 620 633 631 634 632 630 802 806 805 803 804 807 801 -642 646 644 643 645 641 640 160 156 155 154 158 157 159 717 -718 719 751 750 749 723 720 725 721 724 722 176 175 177 375 378 664 884 882 -814 812 811 813 833 892 893 891 888 890 889 -829 827 830 615 137 138 139 875 877 876 878 881 880 879 -832 828 831 374 373 372 865 866 864 0 





OBJ=
5728.419
BEST_KNOWN=
0.000